C 
 1.0000000000000000
     9.8399999999999999    0.0000000000000000    0.0000000000000000
    -9.9199999999999999   17.1819440110832602    0.0000000000000000
     0.0000000000000000   -0.0000000000000000   20.0000000000000000
 C     O   H
  25   2   1
Cartesian
 -3.7300000000000000  7.1706903433351510 10.0000000000000000
 -2.5000000000000000  7.8808311744383897 10.0000000000000000
 -4.9600000000000000  9.3011128366448688 10.0000000000000000
 -3.7300000000000000 10.0112536677481092 10.0000000000000000
 -6.1899999999999995 11.4315353299545883 10.0000000000000000
 -4.9600000000000000 12.1416761610578270 10.0000000000000000
 -1.2700000000000000  7.1706903433351510 10.0000000000000000
 -0.0400000000000000  7.8808311744383897 10.0000000000000000
 -2.5000000000000000  9.3011128366448688 10.0000000000000000
 -1.2700000000000000 10.0112536677481092 10.0000000000000000
 -2.5000000000000000 12.1416761610578270 10.0000000000000000
 -3.7300000000000000 11.4315353299545883 10.0000000000000000
  1.1899999999999999  7.1706903433351510 10.0000000000000000
  2.4199999999999999  7.8808311744383897 10.0000000000000000
 -0.0400000000000000  9.3011128366448688 10.0000000000000000
  1.1899999999999999 10.0112536677481092 10.0000000000000000
 -1.2700000000000000 11.4315353299545883 10.0000000000000000
 -0.0400000000000000 12.1416761610578270 10.0000000000000000
  3.6500000000000004  7.1706903433351510 10.0000000000000000
  4.8800000000000008  7.8808311744383897 10.0000000000000000
  2.4199999999999999  9.3011128366448688 10.0000000000000000
  3.6500000000000004 10.0112536677481092 10.0000000000000000
  1.1899999999999999 11.4315353299545883 10.0000000000000000
  2.4199999999999999 12.1416761610578270 10.0000000000000000
  1.1899999999999999  5.6706903433400000 10.0000000000000000
  2.2465509926000000  5.0606903433400000 10.0000000000000000
  0.0208657049000000  4.9956903433400000 10.0000000000000000
 -0.7036554921000000  5.6255070111400000 10.0000000000000000
