C 
 1.0000000000000000
     9.8399999999999999    0.0000000000000000    0.0000000000000000
    -9.9199999999999999   17.1819440110832602    0.0000000000000000
     0.0000000000000000   -0.0000000000000000   20.0000000000000000
 C    O   H
  25  2   1
Cartesian
 -2.5000000000000000  5.0402678500254314 10.0000000000000000
 -1.2700000000000000  5.7504086811286710 10.0000000000000000
 -3.7300000000000000  7.1706903433351510 10.0000000000000000
 -2.5000000000000000  7.8808311744383897 10.0000000000000000
 -4.9600000000000000  9.3011128366448688 10.0000000000000000
 -3.7300000000000000 10.0112536677481092 10.0000000000000000
 -0.0400000000000000  5.0402678500254314 10.0000000000000000
  1.1899999999999999  5.7504086811286710 10.0000000000000000
 -1.2700000000000000  7.1706903433351510 10.0000000000000000
 -0.0400000000000000  7.8808311744383897 10.0000000000000000
 -2.5000000000000000  9.3011128366448688 10.0000000000000000
 -1.2700000000000000 10.0112536677481092 10.0000000000000000
  2.4199999999999999  5.0402678500254314 10.0000000000000000
  3.6500000000000004  5.7504086811286710 10.0000000000000000
  1.1899999999999999  7.1706903433351510 10.0000000000000000
  2.4199999999999999  7.8808311744383897 10.0000000000000000
 -0.0400000000000000  9.3011128366448688 10.0000000000000000
  1.1899999999999999 10.0112536677481092 10.0000000000000000
  4.8799999999999999  5.0402678500254314 10.0000000000000000
  6.1099999999999994  5.7504086811286710 10.0000000000000000
  3.6500000000000004  7.1706903433351510 10.0000000000000000
  4.8800000000000008  7.8808311744383897 10.0000000000000000
  2.4199999999999999  9.3011128366448688 10.0000000000000000
  3.6500000000000004 10.0112536677481092 10.0000000000000000
 -1.2700000000000000 11.3712536677000000 10.0000000000000000
 -2.3265509926000000 11.9812536677000000 10.0000000000000000
 -0.1008657049000000 12.0462536677000000 10.0000000000000000
  0.6236554921000000 11.4164369999000000 10.0000000000000000
