C 
 1.0000000000000000
    19.8399999999999999    0.0000000000000000    0.0000000000000000
    -4.9199999999999999    8.5216899732388764    0.0000000000000000
     0.0000000000000000   -0.0000000000000000   20.0000000000000000
 C    O   H   Cl
  24  1   1   0
Cartesian
  6.2300000000000004  1.4202816622064796 10.0000000000000000
  5.0000000000000000  3.5507041555161987 10.0000000000000000
  3.7700000000000000  5.6811266488259173 10.0000000000000000
  2.5400000000000000  7.8115491421356360 10.0000000000000000
  7.4600000000000000  0.7101408311032399 10.0000000000000000
  8.6899999999999995  1.4202816622064796 10.0000000000000000
  6.2300000000000004  2.8405633244129591 10.0000000000000000
  7.4600000000000000  3.5507041555161987 10.0000000000000000
  5.0000000000000000  4.9709858177226778 10.0000000000000000
  6.2300000000000004  5.6811266488259173 10.0000000000000000
  3.7700000000000000  7.1014083110323964 10.0000000000000000
  5.0000000000000000  7.8115491421356360 10.0000000000000000
  9.9199999999999999  0.7101408311032399 10.0000000000000000
 11.1500000000000004  1.4202816622064796 10.0000000000000000
  8.6899999999999995  2.8405633244129591 10.0000000000000000
  9.9199999999999999  3.5507041555161987 10.0000000000000000
  7.4600000000000000  4.9709858177226778 10.0000000000000000
  8.6899999999999995  5.6811266488259173 10.0000000000000000
  6.2300000000000004  7.1014083110323964 10.0000000000000000
  7.4600000000000000  7.8115491421356360 10.0000000000000000
 12.3799999999999990  0.7101408311032399 10.0000000000000000
 11.1500000000000004  2.8405633244129591 10.0000000000000000
  9.9199999999999999  4.9709858177226778 10.0000000000000000
  8.6899999999999995  7.1014083110323964 10.0000000000000000
 11.1500000000000004  5.6811266488259173 10.0000000000000000
 10.9668233644000000  6.6234887449300000 10.0000000000000000
