C  O  H 
 1.0000000000000000
    19.2879017580523104    0.0000000000000000    0.0000000000000000
    -9.8735026918962561   17.1014083110323938    0.0000000000000000
     0.0000000000000000   -0.0000000000000000   10.0000000000000000
 C   O   H  
  24   1   1
Cartesian
  2.4767513459481307  5.7101408311032387  5.0000000000000000
  1.2467513459481312  7.8405633244129573  5.0000000000000000
  0.0167513459481303  9.9709858177226760  5.0000000000000000
 -1.2132486540518701 12.1014083110323938  5.0000000000000000
  3.7067513459481312  4.9999999999999982  5.0000000000000000
  4.9367513459481298  5.7101408311032387  5.0000000000000000
  2.4767513459481316  7.1304224933097178  5.0000000000000000
  3.7067513459481303  7.8405633244129573  5.0000000000000000
  1.2467513459481312  9.2608449866194356  5.0000000000000000
  2.4767513459481307  9.9709858177226760  5.0000000000000000
  0.0167513459481308 11.3912674799291551  5.0000000000000000
  1.2467513459481294 12.1014083110323938  5.0000000000000000
  6.1667513459481320  4.9999999999999982  5.0000000000000000
  7.3967513459481307  5.7101408311032387  5.0000000000000000
  4.9367513459481316  7.1304224933097178  5.0000000000000000
  6.1667513459481302  7.8405633244129573  5.0000000000000000
  3.7067513459481329  9.2608449866194356  5.0000000000000000
  4.9367513459481298  9.9709858177226760  5.0000000000000000
  2.4767513459481325 11.3912674799291551  5.0000000000000000
  3.7067513459481303 12.1014083110323938  5.0000000000000000
  8.6267513459481293  4.9999999999999982  5.0000000000000000
  7.3967513459481324  7.1304224933097178  5.0000000000000000
  6.1667513459481302  9.2608449866194356  5.0000000000000000
  4.9367513459481298 11.3912674799291551  5.0000000000000000
  7.3967513459481324  9.9709858177226760  5.0000000000000000
  7.2135747103481318 10.9133479138267582  5.0000000000000000
