C  O  H 
 1.0000000000000000
    19.8399999999999999    0.0000000000000000    0.0000000000000000
    -5.9039999999999999   10.2260279678866510    0.0000000000000000
     0.0000000000000000   -0.0000000000000000   20.0000000000000000
 C   O   H  
  24   1   1
Cartesian
  5.7380000000000004  2.2724506595303673  9.9999999999999982
  4.5080000000000009  4.4028731528400860  9.9999999999999982
  3.2780000000000005  6.5332956461498055  9.9999999999999982
  2.0480000000000000  8.6637181394595242  9.9999999999999982
  6.9680000000000009  1.5623098284271273  9.9999999999999982
  8.1980000000000022  2.2724506595303673  9.9999999999999982
  5.7380000000000013  3.6927323217368468  9.9999999999999982
  6.9680000000000000  4.4028731528400860  9.9999999999999982
  4.5080000000000000  5.8231548150465651  9.9999999999999982
  5.7380000000000013  6.5332956461498055  9.9999999999999982
  3.2780000000000000  7.9535773083562846  9.9999999999999982
  4.5080000000000009  8.6637181394595242  9.9999999999999982
  9.4280000000000026  1.5623098284271273  9.9999999999999982
 10.6580000000000048  2.2724506595303673  9.9999999999999982
  8.1980000000000022  3.6927323217368468  9.9999999999999982
  9.4280000000000008  4.4028731528400860  9.9999999999999982
  6.9680000000000017  5.8231548150465651  9.9999999999999982
  8.1980000000000004  6.5332956461498055  9.9999999999999982
  5.7380000000000022  7.9535773083562846  9.9999999999999982
  6.9680000000000000  8.6637181394595242  9.9999999999999982
 11.8879999999999981  1.5623098284271273  9.9999999999999982
 10.6580000000000030  3.6927323217368468  9.9999999999999982
  9.4280000000000026  5.8231548150465651  9.9999999999999982
  8.1979999999999986  7.9535773083562846  9.9999999999999982
 10.6580000000000013  6.5332956461498055  9.9999999999999982
 10.4748233644000006  7.4756577422538886  9.9999999999999982
