C  O  H 
 1.0000000000000000
    19.8399999999999999    0.0000000000000000    0.0000000000000000
    -4.9199999999999999    8.5216899732388764    0.0000000000000000
     0.0000000000000000   -0.0000000000000000   20.0000000000000000
 C   O   H  
  24   1   1
Cartesian
  6.2300000000000013  0.0000000000000004  9.9999999999999982
  5.0000000000000009  2.1304224933097196  9.9999999999999982
  3.7700000000000018  4.2608449866194373  9.9999999999999982
  2.5400000000000009  6.3912674799291560  9.9999999999999982
  2.5400000000000005  7.8115491421356378  9.9999999999999982
  8.6899999999999995  0.0000000000000004  9.9999999999999982
  6.2300000000000004  1.4202816622064800  9.9999999999999982
  7.4599999999999991  2.1304224933097196  9.9999999999999982
  5.0000000000000009  3.5507041555161987  9.9999999999999982
  6.2300000000000013  4.2608449866194373  9.9999999999999982
  3.7700000000000000  5.6811266488259173  9.9999999999999982
  5.0000000000000000  6.3912674799291560  9.9999999999999982
  4.9999999999999991  7.8115491421356378  9.9999999999999982
 11.1500000000000004  0.0000000000000004  9.9999999999999982
  8.6899999999999995  1.4202816622064800  9.9999999999999982
  9.9199999999999999  2.1304224933097196  9.9999999999999982
  7.4600000000000000  3.5507041555161987  9.9999999999999982
  8.6900000000000013  4.2608449866194373  9.9999999999999982
  6.2300000000000004  5.6811266488259173  9.9999999999999982
  7.4600000000000009  6.3912674799291560  9.9999999999999982
  7.4599999999999982  7.8115491421356378  9.9999999999999982
 11.1500000000000004  1.4202816622064800  9.9999999999999982
  9.9199999999999999  3.5507041555161987  9.9999999999999982
  8.6899999999999995  5.6811266488259173  9.9999999999999982
 11.1500000000000021  4.2608449866194373  9.9999999999999982
 10.9668233643999979  5.2032070827235213  9.9999999999999982
