C  O  H 
 1.0000000000000000
    29.8399999999999999    0.0000000000000000    0.0000000000000000
    -4.9199999999999999    8.5216899732388764    0.0000000000000000
     0.0000000000000000   -0.0000000000000000   20.0000000000000000
 C   O   H  
  24   1   1
Cartesian
 13.4850306843712158  1.9971994790566847 10.0000000000000036
 12.2550306843712153  4.1276219723664038 10.0000000000000036
 11.0250306843712149  6.2580444656761225 10.0000000000000036
  9.7950306843712163  8.3884669589858412 10.0000000000000036
 14.7150306843712144  1.2870586479534452 10.0000000000000036
 15.9450306843712148  1.9971994790566847 10.0000000000000036
 13.4850306843712158  3.4174811412631643 10.0000000000000036
 14.7150306843712144  4.1276219723664038 10.0000000000000036
 12.2550306843712153  5.5479036345728829 10.0000000000000036
 13.4850306843712158  6.2580444656761225 10.0000000000000036
 11.0250306843712149  7.6783261278826016 10.0000000000000036
 12.2550306843712153  8.3884669589858412 10.0000000000000036
 17.1750306843712153  1.2870586479534452 10.0000000000000036
 18.4050306843712157  1.9971994790566847 10.0000000000000036
 15.9450306843712148  3.4174811412631643 10.0000000000000036
 17.1750306843712153  4.1276219723664038 10.0000000000000036
 14.7150306843712144  5.5479036345728829 10.0000000000000036
 15.9450306843712148  6.2580444656761225 10.0000000000000036
 13.4850306843712158  7.6783261278826016 10.0000000000000036
 14.7150306843712144  8.3884669589858412 10.0000000000000036
 19.6350306843712161  1.2870586479534452 10.0000000000000036
 18.4050306843712157  3.4174811412631643 10.0000000000000036
 17.1750306843712153  5.5479036345728829 10.0000000000000036
 15.9450306843712148  7.6783261278826016 10.0000000000000036
 18.4050306843712157  6.2580444656761225 10.0000000000000036
 18.2218540487712133  7.2004065617802055 10.0000000000000036
