C 
1.0
       19.8400001526         0.0000000000         0.0000000000
       -4.9200000763         8.5216901054         0.0000000000
        0.0000000000         0.0000000000        20.0000000000
    C    O
   24    1
Cartesian
     6.230000093         1.420281727        10.000000000
     5.000000001         3.550704380        10.000000000
     3.769999982         5.681126906        10.000000000
     2.539999963         7.811549433        10.000000000
     7.459999928         0.710140863        10.000000000
     8.689999540         1.420281727        10.000000000
     6.229999872         2.840563453        10.000000000
     7.460000039         3.550704380        10.000000000
     4.999999999         4.970985725        10.000000000
     6.230000020         5.681126906        10.000000000
     3.769999687         7.101408760        10.000000000
     5.000000001         7.811549433        10.000000000
     9.920000557         0.710140863        10.000000000
    11.150000169         1.420281727        10.000000000
     8.689999318         2.840563453        10.000000000
     9.920000077         3.550704380        10.000000000
     7.460000629         4.970985725        10.000000000
     8.690000058         5.681126906        10.000000000
     6.230000316         7.101408760        10.000000000
     7.460000039         7.811549433        10.000000000
    12.380000003         0.710140863        10.000000000
    11.149999948         2.840563453        10.000000000
     9.920000075         4.970985725        10.000000000
     8.689999763         7.101408760        10.000000000
    10.924289943         5.681126906        10.000000000
